instances/A-n7-k2-m1-b1ampl_.txt
set K:= 1	2;
set C_H:= 1	2;
set C_S:= 3	4;
set C_F:= 5	6;
set M:= 7	8	9	10	11	12;
set L_B:= 13;
set A1:=
(0,*) 1 2 5 6 7 8 9 10 11 12 13 14
(1,*) 0 2 5 6 7 8 9 10 11 12 13 14
(2,*) 0 1 5 6 7 8 9 10 11 12 13 14
(5,*) 0 1 2 6 7 8 9 10 11 12 13 14
(6,*) 0 1 2 5 7 8 9 10 11 12 13 14
(7,*) 0 1 2 5 6 8 9 10 11 12 13 14
(8,*) 0 1 2 5 6 7 9 10 11 12 13 14
(9,*) 0 1 2 5 6 7 8 10 11 12 13 14
(10,*) 0 1 2 5 6 7 8 9 11 12 13 14
(11,*) 0 1 2 5 6 7 8 9 10 12 13 14
(12,*) 0 1 2 5 6 7 8 9 10 11 13 14
(13,*) 0 1 2 5 6 7 8 9 10 11 12 14
(14,*) 0 1 2 5 6 7 8 9 10 11 12 13
;
set A2:=
(7,*) 8
(8,*) 7
;
param BigM:=99999;
param n:= 2;
param d:=
1	13
2	12
3	9
4	21
5	12
6	10
;
param Q:=100;
param w:=
[7,*] 8 1
[8,*] 7 1
;
param V:=
[7,*] 8 98
[8,*] 7 98
;
param e:
	7	8	9	10	11	12	13:=
3		1		0		0		1		0		0		1	
4		0		1		0		0		0		0		0	
5		1		0		0		0		0		0		0	
6		0		0		0		1		0		0		1	
;
param p:=
1	1
2	1
;
param G:=
7	98
8	84
9	72
10	91
11	89
12	74
13	81
;
param s:=
0	0
1	10
2	10
5	10
6	10
7	10
8	10
9	10
10	10
11	10
12	10
13	10
;
param t:
	0	1	2	3	4	5	6	7	8	9	10	11	12	13	14:=
0	0.0	11.66	17.0	75.01	101.4	30.36	69.35	27.29	102.07	80.01	70.11	15.52	80.52	73.16	0.0
1	11.66	0.0	9.22	65.19	100.85	24.21	60.42	19.72	100.69	86.7	60.83	11.18	84.59	64.43	11.66
2	17.0	9.22	0.0	58.01	92.18	15.0	52.47	10.77	91.81	82.0	53.15	4.47	78.06	56.34	17.0
3	75.01	65.19	58.01	0.0	83.19	47.07	10.0	48.26	78.41	111.07	7.07	60.21	96.26	10.74	75.01
4	101.4	100.85	92.18	83.19	0.0	78.79	74.43	84.17	7.21	62.01	77.52	89.69	41.11	72.47	101.4
5	30.36	24.21	15.0	47.07	78.79	0.0	40.05	5.39	77.9	77.08	41.3	14.87	69.58	43.55	30.36
6	69.35	60.42	52.47	10.0	74.43	40.05	0.0	42.11	70.03	101.14	3.16	54.08	86.27	4.31	69.35
7	27.29	19.72	10.77	48.26	84.17	5.39	42.11	0.0	83.24	80.99	43.0	12.0	74.33	45.87	27.29
8	102.07	100.69	91.81	78.41	7.21	77.9	70.03	83.24	0.0	68.07	73.06	89.63	47.01	67.77	102.07
9	80.01	86.7	82.0	111.07	62.01	77.08	101.14	80.99	68.07	0.0	104.0	77.67	21.1	101.91	80.01
10	70.11	60.83	53.15	7.07	77.52	41.3	3.16	43.0	73.06	104.0	0.0	55.0	89.31	6.02	70.11
11	15.52	11.18	4.47	60.21	89.69	14.87	54.08	12.0	89.63	77.67	55.0	0.0	74.17	57.8	15.52
12	80.52	84.59	78.06	96.26	41.11	69.58	86.27	74.33	47.01	21.1	89.31	74.17	0.0	86.37	80.52
13	73.16	64.43	56.34	10.74	72.47	43.55	4.31	45.87	67.77	101.91	6.02	57.8	86.37	0.0	73.16
;
