ampl_outputs/A-n7-k2-m1-b1ampl_.txt.out
Gurobi 12.0.3:   lim:time = 14400

  mip:bestbound = 1

Set parameter LogToConsole to value 1

  tech:outlev = 1

Set parameter Cuts to value 3

  cut:cuts = 3

Set parameter Presolve to value 2

  pre:solve = 2

Set parameter MIPFocus to value 2

  mip:focus = 2

Set parameter Symmetry to value 2

  mip:symmetry = 2

Set parameter InfUnbdInfo to value 1

Gurobi Optimizer version 12.0.3 build v12.0.3rc0 (win64 - Windows 10.0 (19045.2))



CPU model: Intel(R) Core(TM) i7-10700 CPU @ 2.90GHz, instruction set [SSE2|AVX|AVX2]

Thread count: 8 physical cores, 16 logical processors, using up to 16 threads



Non-default parameters:

TimeLimit  14400

MIPFocus  2

Symmetry  2

Cuts  3

InfUnbdInfo  1

Presolve  2



Optimize a model with 210 rows, 220 columns and 1212 nonzeros

Model fingerprint: 0xc73984fb

Model has 1 quadratic objective term

Model has 4 quadratic constraints

Variable types: 24 continuous, 196 integer (0 binary)

Coefficient statistics:

  Matrix range     [1e+00, 1e+05]

  QMatrix range    [1e+00, 1e+00]

  QLMatrix range   [1e+00, 2e+01]

  Objective range  [3e+00, 1e+02]

  QObjective range [2e+00, 2e+00]

  Bounds range     [1e+00, 1e+02]

  RHS range        [1e+00, 1e+05]

  QRHS range       [2e+01, 1e+02]

Presolve removed 13 rows and 28 columns

Presolve time: 0.02s

Presolved: 299 rows, 289 columns, 1742 nonzeros

Variable types: 46 continuous, 243 integer (207 binary)

Found heuristic solution: objective 467.8700000

Root relaxation presolve removed 37 rows and 0 columns

Root relaxation presolved: 229 rows, 283 columns, 1595 nonzeros





Root relaxation: objective 5.339143e+01, 58 iterations, 0.01 seconds (0.00 work units)



    Nodes    |    Current Node    |     Objective Bounds      |     Work

 Expl Unexpl |  Obj  Depth IntInf | Incumbent    BestBd   Gap | It/Node Time



     0     0   53.39143    0   27  467.87000   53.39143  88.6%     -    0s

H    0     0                     432.7800000   53.39143  87.7%     -    0s

H    0     0                     316.2400000   53.39143  83.1%     -    0s

H    0     0                     205.9500000   56.32046  72.7%     -    0s

H    0     0                     204.7300000   67.58571  67.0%     -    0s

H    0     0                     194.3200000   67.58571  65.2%     -    0s

     0     0   93.19429    0   19  194.32000   93.19429  52.0%     -    0s

H    0     0                     175.5600000   93.19429  46.9%     -    0s

     0     0  100.68914    0   28  175.56000  100.68914  42.6%     -    0s

     0     0  100.68914    0   28  175.56000  100.68914  42.6%     -    0s

H    0     0                     166.3300000  113.03098  32.0%     -    0s

     0     0  136.66500    0   40  166.33000  136.66500  17.8%     -    0s

H    0     0                     163.7500000  136.66500  16.5%     -    0s

H    0     0                     162.9600000  136.66500  16.1%     -    0s

     0     0  143.68800    0   49  162.96000  143.68800  11.8%     -    0s

     0     0  143.68800    0   55  162.96000  143.68800  11.8%     -    0s

     0     0  146.94049    0   14  162.96000  146.94049  9.83%     -    0s

     0     0  147.09000    0   16  162.96000  147.09000  9.74%     -    0s

     0     0  147.63500    0   16  162.96000  147.63500  9.40%     -    0s

     0     0  147.85000    0   16  162.96000  147.85000  9.27%     -    0s

     0     0  147.85000    0   21  162.96000  147.85000  9.27%     -    0s

     0     0  147.85000    0   21  162.96000  147.85000  9.27%     -    0s

     0     0  147.85000    0   22  162.96000  147.85000  9.27%     -    0s

     0     0  147.85000    0   16  162.96000  147.85000  9.27%     -    0s

     0     0  147.85000    0   12  162.96000  147.85000  9.27%     -    0s

     0     0  147.85000    0    8  162.96000  147.85000  9.27%     -    0s

     0     0  151.59000    0    8  162.96000  151.59000  6.98%     -    0s

     0     0  151.59000    0    8  162.96000  151.59000  6.98%     -    0s

     0     2  151.59000    0    8  162.96000  151.59000  6.98%     -    0s



Cutting planes:

  Learned: 6

  Gomory: 33

  Cover: 4

  Implied bound: 6

  Projected implied bound: 2

  Clique: 4

  MIR: 4

  StrongCG: 4

  Flow cover: 56

  Inf proof: 1

  Zero half: 30

  RLT: 15

  Relax-and-lift: 7



Explored 1266 nodes (10041 simplex iterations) in 0.73 seconds (0.41 work units)

Thread count was 16 (of 16 available processors)



Solution count 10: 162.96 163.75 166.33 ... 467.87



Optimal solution found (tolerance 1.00e-04)

Best objective 1.629600000000e+02, best bound 1.629600000000e+02, gap 0.0000%



AMPL MP initial flat model has 220 variables (0 integer, 196 binary);

Objectives: 1 quadratic; 

Constraints:  210 linear; 4 quadratic;



AMPL MP final model has 220 variables (0 integer, 196 binary);

Objectives: 1 quadratic; 

Constraints:  210 linear; 4 quadratic;





-----RESULTS INFO-----
running_time:  0.875
TC.best_bound:  162.96
TC:  162.96
MIP Gap (%):  0
=== Vehicle Routes ===
Vehicle 1: 0 → 1
Vehicle 1: 1 → 6
Vehicle 1: 2 → 14
Vehicle 1: 6 → 7
Vehicle 1: 7 → 2
Vehicle 2: 0 → 14

=== Full Vehicle Routes ===
Vehicle 1: 0 → 1 → 6 → 7 → 2 → 0 (77<100)
Vehicle 2: 0 → 0 (0<100)
Arc used by MRT line: y variables:
MRT used: 7 → 8
Customer assigment to PL: u variables:
3 7
4 8
5 7
Node is served by regular vehicle: g variables:
1
2
6
7
Customer assigment to Home delivery: gm variables:
1
2
6
Node total demands: ntd variables:
1 13 1
2 12 1
5 0 0
6 10 1
13 0 0
7 42 1
8 0 0
9 0 0
10 0 0
11 0 0
12 0 0
Customer's demand delivered to PL: l variables:
3
4
5
Lockers load <= capacity:
0 <= 81
21 <= 98
21 <= 84
0 <= 72
0 <= 91
0 <= 89
0 <= 74
